#
SystemName            Au_device        # optional change
SystemLabel  AuLead
#********************************************************
# Specification of atomic species and positions
#********************************************************
# Chemical species
NumberOfSpecies    1
%block ChemicalSpeciesLabel
 1 79 Au
%endblock ChemicalSpeciesLabel
# UNIT CELL
LatticeConstant          1.0 Ang
%block LatticeVectors
   5.1209  0.0000000000  0.0000000000
   0.0000000000  2.9566  0.0000000000
   0.0000000000  0.0000000000 7.242
%endblock LatticeVectors
# ATOMIC POSITIONS
NumberOfAtoms    6
AtomicCoordinatesFormat    Ang
%block AtomicCoordinatesAndAtomicSpecies
           0.853483000     1.478277000     0.000000000  1
           3.413937000     0.000000000     0.000000000  1
           0.000000000    -0.000000000     2.414000000  1
           2.560449000     1.478277000     2.414000000  1
           1.706973000     0.000000000     4.828000000  1
           4.267422000     1.478277000     4.828000000  1
%endblock AtomicCoordinatesAndAtomicSpecies
#********************************************************
# DFT options
#********************************************************
# Basis set variables
PAO.BasisType    split
PAO.EnergyShift         0.02700000000 eV
%block PAO.Basis
Au          3                    # Species label, number of l-shells
 n=6   0   2                   # n, l, Nzeta, Polarization, NzetaPol
   6.0    0.0
 n=6   1   2                    # n, l, Nzeta, Polarization, NzetaPol
   5.0    0.0
 n=5   2   2                         # n, l, Nzeta
   4.0    0.0
%endblock PAO.Basis
%block kgrid_Monkhorst_Pack
  4   0   0     0.0
  0   4   0     0.0
  0   0   20     0.0
%endblock kgrid_Monkhorst_Pack
# General variables
ElectronicTemperature     200 K
MeshCutoff                300. Ry
xc.functional             LDA           # Exchange-correlation functional
xc.authors                CA
#SpinPolarized             T
#SpinOrbit                       T
# SCF variables
DM.MixSCF1                        F          # optional change
MaxSCFIterations         1000           # Maximum number of SCF iter
DM.MixingWeight                 0.1         # optional change
DM.Tolerance                 1.0E-5
DM.UseSaveDM             true           # to use continuation files
DM.NumberPulay                    5
SolutionMethod   	      diagon
#FixSpin		      T
#TotalSpin             0.5
# Output variables
WriteMullikenPop                   0
WriteBands                         F
SaveRho                            T
SaveElectrostaticPotential         T
SaveTotalPotential                 F
WriteCoorXmol                      T
WriteMDXmol                        T
#********************************************************
# SMEAGOL options
#********************************************************
#ParallelOverK                     T
BulkTransport                     T
BulkLead                         LR
WriteEDM                          T
