#
SystemName            Au_device        # optional change
SystemLabel  Au
#********************************************************
# Specification of atomic species and positions
#********************************************************
# Chemical species
NumberOfSpecies    1
%block ChemicalSpeciesLabel
 1 79 Au
%endblock ChemicalSpeciesLabel
# UNIT CELL
LatticeConstant          1.0 Ang
%block LatticeVectors
   5.1209   0.0000000000  0.0000000000
   0.0000000000  2.9566  0.0000000000
   0.0000000000  0.0000000000  36.21
%endblock LatticeVectors
# ATOMIC POSITIONS
NumberOfAtoms    28
AtomicCoordinatesFormat    Ang
%block AtomicCoordinatesAndAtomicSpecies
      0.853483    1.478277    0.000000  1
      3.413937    0.000000    0.000000  1
      0.000000    0.000000    2.414000  1
      2.560449    1.478277    2.414000  1
      1.706973    0.000000    4.828000  1
      4.267422    1.478277    4.828000  1
      0.853483    1.478277    7.242000  1
      3.413937    0.000000    7.242000  1
      0.000000    0.000000    9.656000  1
      2.560449    1.478277    9.656000  1
      1.706973    0.000000   12.070000  1
      4.267422    1.478277   12.070000  1
      0.853483    1.478277   14.484000  1
      3.413937    0.000000   14.484000  1
      1.706973    0.000000   19.312000  1
      4.267422    1.478277   19.312000  1
      0.853483    1.478277   21.726000  1
      3.413937    0.000000   21.726000  1
      0.000000    0.000000   24.140000  1
      2.560449    1.478277   24.140000  1
      1.706973    0.000000   26.554000  1
      4.267422    1.478277   26.554000  1
      0.853483    1.478277   28.968000  1
      3.413937    0.000000   28.968000  1
      0.000000    0.000000   31.382000  1
      2.560449    1.478277   31.382000  1
      1.706973    0.000000   33.796000  1
      4.267422    1.478277   33.796000  1
%endblock AtomicCoordinatesAndAtomicSpecies
#********************************************************
# DFT options
#********************************************************
# Basis set variables
PAO.BasisType    split
PAO.EnergyShift         0.02700000000 eV
%block PAO.Basis
Au          3                    # Species label, number of l-shells
 n=6   0   2                   # n, l, Nzeta, Polarization, NzetaPol
   6.0    0.0
 n=6   1   2                    # n, l, Nzeta, Polarization, NzetaPol
   5.0    0.0
 n=5   2   2                         # n, l, Nzeta
   4.0    0.0
%endblock PAO.Basis
%block kgrid_Monkhorst_Pack
  4   0   0     0.0
  0   4   0     0.0
  0   0 1     0.0
%endblock kgrid_Monkhorst_Pack
# General variables
ElectronicTemperature     200 K
MeshCutoff                300. Ry
xc.functional             LDA           # Exchange-correlation functional
xc.authors                CA
#SpinPolarized             T
#SpinOrbit                       T
# SCF variables
DM.MixSCF1                        T          # optional change
MaxSCFIterations         1000          # Maximum number of SCF iter
DM.MixingWeight                 0.1         # optional change
DM.Tolerance                 1.0E-5
DM.UseSaveDM             true           # to use continuation files
DM.NumberPulay                    5
SolutionMethod   	      diagon
#FixSpin		      T
#TotalSpin             0.5
# Output variables
WriteMullikenPop                   0
WriteBands                         F
SaveRho                            T
SaveElectrostaticPotential         T
SaveTotalPotential                 F
WriteCoorXmol                      T
WriteMDXmol                        T
#********************************************************
# SMEAGOL options
#********************************************************
# perform a transport calculation
EMTransport               T
# set number of energy points for integrals
NEnergReal                0
NEnergImCircle           32
NEnergImLine             32
NPoles                   96
#set bias range
VInitial                 0.00d0 eV
VFinal                   0.00d0 eV
NIVPoints                0
# General variables
Delta                    1.d-6
EnergLowestBound        -3.0d0 Ry
#InitTransport            T
WriteDMT                 T
# Matching of Hartree potential with the leads
HartreeLeadsBottom       -17.04302597    eV
HartreeLeadsLeft         0.00          Ang
HartreeLeadsRight        0.00          Ang
# print transmission coefficient
TrCoefficients           T
NTransmPoints            100
TransmissionOverK        F
InitTransmRange         -3  eV
FinalTransmRange         1  eV
TRC.EMDOS                F
TRC.EMPDOS               F
#WriteSpinSCF              T
#WriteSpinMulliken         T
